WARNING: for repeatability, setting FPU to use double precision
============================[ Problem Statistics ]=============================
|                                                                             |
|  Number of variables:           100                                         |
|  Number of clauses:             449                                         |
|  Parse time:                   0.00 s                                       |
|  Eliminated clauses:           0.00 Mb                                      |
|  Simplification time:          0.00 s                                       |
|                                                                             |
============================[ Search Statistics ]==============================
| Conflicts |          ORIGINAL         |          LEARNT          | Progress |
|           |    Vars  Clauses Literals |    Limit  Clauses Lit/Cl |          |
===============================================================================
|       100 |      98      446     1351 |      163      100      7 |  0.010 % |
|       250 |      97      437     1324 |      179       95      6 |  1.010 % |
===============================================================================
restarts              : 3
conflicts             : 323            (82524 /sec)
decisions             : 402            (0.00 % random) (102708 /sec)
propagations          : 7634           (1950434 /sec)
conflict literals     : 1935           (21.18 % deleted)
Memory used           : 13.00 MB
CPU time              : 0.003914 s

SATISFIABLE
